plate_width = 8;
n_circuits = 4;
n_shapes = 6;
widths = [3, 3, 5, 5];
lengths = [3, 5, 3, 5];
sizes = [| 3, 3 | 3, 5 | 5, 3 | 5, 3 | 3, 5 | 5, 5 |];
offsets = [| 0, 0 | 0, 0 | 0, 0 | 0, 0 | 0, 0 | 0, 0 |];
shapes = [{1}, {2}, {3}, {4}, {5}, {6}];
valid_shapes = [{1}, {2, 3}, {4, 5}, {6}];